10
1 0 155
2 0 60
2 1 8
3 0 83
3 1 42
3 2 89
4 0 33
4 1 33
4 2 111
4 3 148
5 0 83
5 1 105
5 2 59
5 3 137
5 4 14
6 0 109
6 1 21
6 2 128
6 3 17
6 4 3
6 5 3
7 0 139
7 1 145
7 2 146
7 3 66
7 4 78
7 5 154
7 6 96
8 0 10
8 1 49
8 2 66
8 3 28
8 4 108
8 5 34
8 6 100
8 7 104
9 0 129
9 1 30
9 2 144
9 3 21
9 4 20
9 5 25
9 6 70
9 7 73
9 8 66
